language Essence 1.3

letting bot_end be [4014, 243, 4735, 662, 4995, 4070, 4069, 3515, 4015, 4824, 812, 4797, 3777, 4668; int(1..14)]
letting bot_start be [1130, 4827, 1164, 2888, 3978, 1256, 1902, 836, 3381, 2114, 4389, 1132, 2233, 1839; int(1..14)]
letting buffer_col be 2
letting buffer_row be 2
letting corridor_size be 1
letting n_shelves_col be 15
letting n_shelves_row be 49
letting shelf_col_size be 2
letting shelf_row_size be 1
